1 1 -2 0
1 -3 -4 0
1 -5 -6 0
1 7 8 0
1 7 2 0
1 -9 -4 0
1 -10 4 0
1 10 5 0
1 10 9 0
1 6 11 0
1 -6 12 0
1 12 13 0
1 12 6 0
1 -12 9 0
1 14 -15 0
1 14 16 0
1 -14 17 0
1 14 -18 0
1 -4 19 0
1 4 -14 0
1 -20 -21 0
1 20 -22 0
1 23 -21 0
1 -23 -24 0
1 25 -26 0
1 -25 -27 0
1 25 6 0
1 -22 -26 0
1 11 19 0
1 28 -29 0
1 30 31 0
1 32 -33 0
1 -32 34 0
1 -35 36 0
1 -37 -38 0
1 -37 -6 0
1 -39 -28 0
1 17 -40 0
1 -17 -41 0
1 15 42 0
1 15 43 0
1 44 45 0
1 44 -46 0
1 44 -40 0
1 -45 -46 0
1 -45 -14 0
1 -45 -47 0
1 -40 -19 0
1 40 43 0
1 43 -19 0
1 -43 -44 0
1 46 -44 0
1 42 -48 0
1 -19 12 0
1 19 -43 0
1 -18 11 0
1 49 45 0
1 -49 50 0
1 51 -27 0
1 51 -50 0
1 -8 50 0
1 -47 45 0
1 47 44 0
1 -27 11 0
1 27 -52 0
1 27 48 0
1 -53 -54 0
1 53 -52 0
1 55 54 0
1 -13 56 0
1 13 -57 0
1 -52 -57 0
1 -16 -58 0
1 -54 -4 0
1 59 -60 0
1 -57 -61 0
1 -62 -57 0
1 -62 -53 0
1 63 -55 0
1 -61 64 0
1 -61 65 0
1 -61 -66 0
1 67 -11 0
1 -67 -68 0
1 69 -70 0
1 71 -72 0
1 -73 74 0
1 -75 70 0
1 -70 76 0
1 70 69 0
1 77 78 0
1 -79 78 0
1 79 80 0
1 81 -75 0
1 -76 30 0
1 -76 -82 0
1 -83 -84 0
1 83 75 0
1 -83 -72 0
1 -74 -85 0
1 -74 -81 0
1 74 71 0
1 74 -86 0
1 82 -87 0
1 -88 -71 0
1 89 -90 0
1 -85 15 0
1 85 91 0
1 -92 93 0
1 87 -92 0
1 -87 91 0
1 -94 -95 0
1 91 -96 0
1 -91 95 0
1 -84 97 0
1 -84 -96 0
1 98 -99 0
1 98 -46 0
1 -98 -100 0
1 101 102 0
1 -101 103 0
1 -104 -99 0
1 -102 105 0
1 -106 -101 0
1 106 -104 0
1 -93 100 0
1 -107 -93 0
1 108 103 0
1 109 110 0
1 109 111 0
1 -112 102 0
1 -113 114 0
1 -113 34 0
1 -113 48 0
1 113 -112 0
1 -113 108 0
1 115 -108 0
1 116 -33 0
1 -116 117 0
1 -50 111 0
1 50 47 0
1 114 115 0
1 -110 -64 0
1 110 56 0
1 -110 -112 0
1 -111 -58 0
1 -118 -46 0
1 118 119 0
1 118 -120 0
1 -121 118 0
1 -56 -110 0
1 -56 -122 0
1 -56 123 0
1 -58 124 0
1 -58 110 0
1 64 -123 0
1 68 -124 0
1 123 -56 0
1 -123 125 0
1 -123 -58 0
1 -124 64 0
1 -124 -126 0
1 -124 -123 0
1 122 -8 0
1 -127 128 0
1 129 130 0
1 129 131 0
1 -132 129 0
1 133 -123 0
1 -125 130 0
1 125 134 0
1 -125 135 0
1 125 -131 0
1 130 136 0
1 130 137 0
1 -130 125 0
1 138 139 0
1 -140 -141 0
1 -140 -125 0
1 -142 -143 0
1 -144 145 0
1 144 134 0
1 -146 147 0
1 -146 -139 0
1 148 -130 0
1 134 148 0
1 -147 149 0
1 145 -137 0
1 145 147 0
1 -150 -151 0
1 150 -152 0
1 153 154 0
1 154 155 0
1 -154 -156 0
1 -151 -157 0
1 -151 -150 0
1 -158 159 0
1 158 -153 0
1 156 -160 0
1 -156 153 0
1 -161 -154 0
1 -155 -162 0
1 -163 164 0
1 -163 -165 0
1 -163 -155 0
1 163 -166 0
1 -78 167 0
1 168 169 0
1 170 171 0
1 172 78 0
1 172 -168 0
1 167 -165 0
1 -97 173 0
1 -97 74 0
1 -96 171 0
1 96 174 0
1 -175 169 0
1 175 173 0
1 175 174 0
1 175 104 0
1 174 171 0
1 174 75 0
1 -174 175 0
1 171 -174 0
1 176 97 0
1 -176 -177 0
1 95 93 0
1 -95 -94 0
1 -178 179 0
1 178 107 0
1 -180 181 0
1 -180 -107 0
1 86 182 0
1 86 183 0
1 -184 185 0
1 184 -96 0
1 184 180 0
1 186 187 0
1 186 188 0
1 186 -95 0
1 -186 175 0
1 -187 -96 0
1 189 190 0
1 189 -60 0
1 -105 -93 0
1 -105 107 0
1 191 -190 0
1 -191 192 0
1 117 193 0
1 117 194 0
1 190 178 0
1 -190 180 0
1 181 191 0
1 -181 -195 0
1 -181 105 0
1 196 -197 0
1 -196 179 0
1 196 -91 0
1 179 198 0
1 -199 190 0
1 199 113 0
1 -200 -190 0
1 201 -202 0
1 201 -135 0
1 -201 -106 0
1 -201 117 0
1 -193 203 0
1 193 195 0
1 193 -192 0
1 192 -120 0
1 -128 204 0
1 -128 -205 0
1 205 -139 0
1 -204 -206 0
1 204 -207 0
1 -143 208 0
1 -143 -209 0
1 -139 140 0
1 139 -205 0
1 -210 149 0
1 211 -212 0
1 209 213 0
1 -209 214 0
1 209 143 0
1 215 135 0
1 -215 -143 0
1 216 -217 0
1 -216 131 0
1 137 -131 0
1 212 -211 0
1 -149 -218 0
1 219 -137 0
1 -219 220 0
1 -221 137 0
1 -217 -212 0
1 222 -223 0
1 222 -224 0
1 222 -127 0
1 -225 226 0
1 -226 225 0
1 227 -228 0
1 136 -227 0
1 -229 230 0
1 -228 -140 0
1 228 -149 0
1 -231 -232 0
1 -233 -136 0
1 234 235 0
1 236 -234 0
1 236 -237 0
1 -237 227 0
1 -237 -238 0
1 235 239 0
1 235 -240 0
1 -241 242 0
1 241 147 0
1 243 -244 0
1 -243 242 0
1 245 246 0
1 247 -248 0
1 -247 -249 0
1 247 -250 0
1 -247 153 0
1 -247 246 0
1 251 -246 0
1 251 -249 0
1 252 253 0
1 254 -255 0
1 -246 247 0
1 256 251 0
1 -253 -252 0
1 253 -257 0
1 253 158 0
1 -258 158 0
1 248 259 0
1 248 247 0
1 250 -260 0
1 -162 -261 0
1 -262 -158 0
1 -262 162 0
1 -164 -248 0
1 -164 263 0
1 164 163 0
1 263 264 0
1 265 -164 0
1 265 -266 0
1 265 -267 0
1 -265 162 0
1 265 -268 0
1 -267 269 0
1 -267 164 0
1 267 -262 0
1 270 271 0
1 -270 259 0
1 -160 -163 0
1 -272 -273 0
1 274 275 0
1 -274 276 0
1 157 164 0
1 157 -277 0
1 -278 -160 0
1 -271 164 0
1 271 -264 0
1 -275 -164 0
1 277 -278 0
1 -279 -167 0
1 -279 157 0
1 -280 -281 0
1 280 282 0
1 -280 283 0
1 -280 284 0
1 285 -286 0
1 -285 287 0
1 285 -279 0
1 -288 -289 0
1 -288 188 0
1 -273 280 0
1 -276 -272 0
1 -276 284 0
1 -188 171 0
1 290 285 0
1 290 291 0
1 -286 -288 0
1 -286 -292 0
1 286 -191 0
1 287 293 0
1 -287 286 0
1 -287 292 0
1 -287 186 0
1 293 -198 0
1 -293 287 0
1 -294 -289 0
1 281 289 0
1 -281 286 0
1 295 -296 0
1 -295 -186 0
1 -198 297 0
1 198 -292 0
1 298 -297 0
1 296 -295 0
1 299 -203 0
1 299 286 0
1 299 300 0
1 177 -301 0
1 302 -303 0
1 195 -302 0
1 -195 -179 0
1 203 296 0
1 -304 197 0
1 -304 305 0
1 183 306 0
1 -306 -302 0
1 -303 300 0
1 303 298 0
1 -303 307 0
1 297 203 0
1 297 300 0
1 -206 -308 0
1 -309 310 0
1 -311 -312 0
1 -308 -203 0
1 308 313 0
1 207 314 0
1 315 205 0
1 315 -316 0
1 -317 209 0
1 218 -318 0
1 -218 -319 0
1 218 317 0
1 310 224 0
1 -314 320 0
1 314 -321 0
1 322 -309 0
1 -213 -323 0
1 224 -324 0
1 -325 318 0
1 325 323 0
1 323 326 0
1 -323 -214 0
1 327 325 0
1 -327 -220 0
1 -319 -224 0
1 -328 204 0
1 328 329 0
1 -223 233 0
1 -330 -327 0
1 -330 -331 0
1 -330 332 0
1 330 333 0
1 -324 -330 0
1 -324 220 0
1 324 333 0
1 334 -335 0
1 -334 336 0
1 230 -326 0
1 -230 -324 0
1 -337 -136 0
1 337 -230 0
1 -338 -339 0
1 338 -242 0
1 -338 -333 0
1 340 -341 0
1 340 -342 0
1 242 -241 0
1 -339 338 0
1 343 344 0
1 344 136 0
1 -345 346 0
1 -345 -341 0
1 345 339 0
1 -345 347 0
1 345 -242 0
1 -347 -341 0
1 -347 239 0
1 348 349 0
1 259 -270 0
1 350 248 0
1 351 352 0
1 -351 353 0
1 -351 272 0
1 -351 -354 0
1 -352 282 0
1 -255 254 0
1 355 -351 0
1 -356 357 0
1 -264 -271 0
1 268 -255 0
1 -282 358 0
1 359 -353 0
1 358 -360 0
1 361 -291 0
1 361 276 0
1 291 -273 0
1 291 260 0
1 362 363 0
1 362 -273 0
1 -364 363 0
1 365 289 0
1 365 366 0
1 367 362 0
1 367 -368 0
1 266 369 0
1 -266 -359 0
1 289 273 0
1 289 370 0
1 289 -276 0
1 -370 -288 0
1 370 -294 0
1 -371 294 0
1 -372 373 0
1 -374 289 0
1 -374 -157 0
1 374 375 0
1 -374 376 0
1 -374 -301 0
1 -363 372 0
1 -377 375 0
1 -377 -378 0
1 -379 -369 0
1 379 374 0
1 301 379 0
1 -380 381 0
1 -305 -382 0
1 -305 373 0
1 383 -384 0
1 385 384 0
1 -385 305 0
1 -307 -292 0
1 -300 177 0
1 -300 299 0
1 -300 386 0
1 300 296 0
1 -387 -388 0
1 -387 297 0
1 -387 -321 0
1 -389 -387 0
1 -386 -390 0
1 -386 -389 0
1 -388 -389 0
1 388 300 0
1 -391 392 0
1 391 307 0
1 390 393 0
1 390 384 0
1 -390 -183 0
1 394 -308 0
1 394 386 0
1 395 -299 0
1 -396 387 0
1 312 397 0
1 398 -312 0
1 399 -400 0
1 397 398 0
1 -397 -401 0
1 -397 -183 0
1 402 312 0
1 -402 -303 0
1 -402 403 0
1 -404 -405 0
1 -404 406 0
1 407 -408 0
1 -409 410 0
1 409 411 0
1 409 412 0
1 -329 413 0
1 329 -319 0
1 -329 -400 0
1 329 -409 0
1 329 328 0
1 410 399 0
1 410 -414 0
1 -415 408 0
1 413 416 0
1 -413 -411 0
1 411 -413 0
1 411 -407 0
1 411 417 0
1 326 319 0
1 -414 323 0
1 336 -418 0
1 -336 -419 0
1 -419 336 0
1 -419 -334 0
1 420 -409 0
1 420 421 0
1 -412 -422 0
1 320 -419 0
1 -418 322 0
1 -418 423 0
1 335 -424 0
1 -335 -412 0
1 -425 426 0
1 425 -242 0
1 425 -423 0
1 -425 427 0
1 -428 -429 0
1 -428 -430 0
1 -428 -431 0
1 432 -335 0
1 -432 -342 0
1 -427 -425 0
1 -424 -421 0
1 -426 422 0
1 426 -433 0
1 341 -432 0
1 341 -431 0
1 -346 430 0
1 434 432 0
1 -435 -431 0
1 -436 266 0
1 436 354 0
1 437 -438 0
1 -439 440 0
1 -439 -441 0
1 438 381 0
1 -442 255 0
1 443 357 0
1 357 -439 0
1 -444 440 0
1 -444 -266 0
1 -444 445 0
1 -381 438 0
1 381 360 0
1 381 440 0
1 -381 -446 0
1 378 360 0
1 440 -447 0
1 445 448 0
1 -445 439 0
1 445 449 0
1 -360 369 0
1 441 -381 0
1 441 360 0
1 441 378 0
1 -448 307 0
1 448 446 0
1 375 363 0
1 450 -451 0
1 -450 376 0
1 452 440 0
1 452 446 0
1 -452 450 0
1 453 -375 0
1 368 454 0
1 368 -453 0
1 -451 -448 0
1 392 384 0
1 392 382 0
1 392 368 0
1 -455 456 0
1 -455 457 0
1 455 -458 0
1 455 -459 0
1 -455 368 0
1 457 -456 0
1 457 460 0
1 -457 -461 0
1 376 462 0
1 376 -452 0
1 376 -374 0
1 376 463 0
1 376 -464 0
1 -376 450 0
1 461 -465 0
1 -461 450 0
1 -461 -466 0
1 -467 465 0
1 467 -363 0
1 -467 463 0
1 -467 -450 0
1 460 455 0
1 -460 392 0
1 468 -462 0
1 468 312 0
1 464 -469 0
1 470 -471 0
1 470 -406 0
1 470 -458 0
1 -470 -472 0
1 459 -457 0
1 459 -468 0
1 -456 470 0
1 458 -455 0
1 471 473 0
1 -474 404 0
1 -405 475 0
1 -405 -395 0
1 -405 -396 0
1 -476 402 0
1 477 404 0
1 -472 478 0
1 -479 -475 0
1 479 -480 0
1 479 -474 0
1 -475 -481 0
1 -401 413 0
1 401 -482 0
1 403 414 0
1 478 413 0
1 -478 483 0
1 478 484 0
1 -417 -419 0
1 485 -417 0
1 -483 -395 0
1 -483 486 0
1 -416 -320 0
1 -416 487 0
1 -416 411 0
1 423 320 0
1 -423 -418 0
1 486 488 0
1 -486 489 0
1 -486 -484 0
1 487 -404 0
1 -487 -490 0
1 -487 -484 0
1 422 421 0
1 433 -491 0
1 433 492 0
1 -491 -411 0
1 447 441 0
1 -493 440 0
1 -494 -495 0
1 494 -446 0
1 496 -497 0
1 -496 495 0
1 -496 -449 0
1 498 497 0
1 -498 -499 0
1 -498 -500 0
1 -501 502 0
1 503 -496 0
1 -503 -357 0
1 -454 -504 0
1 505 -460 0
1 499 495 0
1 449 496 0
1 -504 499 0
1 504 -506 0
1 504 496 0
1 504 507 0
1 508 509 0
1 508 -510 0
1 463 465 0
1 465 495 0
1 -511 -458 0
1 -511 449 0
1 512 -513 0
1 514 515 0
1 516 -499 0
1 -516 515 0
1 516 463 0
1 -482 456 0
1 -482 475 0
1 482 -514 0
1 -482 -517 0
1 517 -456 0
1 517 475 0
1 517 518 0
1 -517 -514 0
1 519 512 0
1 -519 -478 0
1 481 -466 0
1 520 511 0
1 -520 521 0
1 -520 -481 0
1 518 511 0
1 518 519 0
1 518 522 0
1 -522 -513 0
1 523 -524 0
1 -525 -526 0
1 -525 527 0
1 525 524 0
1 489 528 0
1 527 -458 0
1 529 530 0
1 -529 521 0
1 490 483 0
1 -531 -530 0
1 531 -492 0
1 -492 532 0
1 -492 533 0
1 -528 -492 0
1 530 469 0
1 -534 532 0
1 -535 -495 0
1 510 536 0
1 -510 -535 0
1 -537 538 0
1 -536 513 0
1 513 -480 0
1 -513 538 0
1 513 -539 0
1 513 -540 0
1 -541 -542 0
1 542 543 0
1 -521 518 0
1 544 -542 0
1 544 522 0
1 -543 -527 0
1 -533 -545 0
1 546 543 0
1 -546 541 0
1 547 539 0
